158 300 13 29 27 44 36 24 26 48 27 43 29 27 22 39 31 48 32 43 31 38 43 19 47 24 42 31 13 25 44 11 17 47 32 37 41 18 10 16 17 28 10 38 47 22 26 29 19 50 23 40 37 15 10 36 30 42 16 35 18 11 36 26 48 19 12 40 27 12 48 34 32 49 23 30 22 39 49 34 41 21 25 29 27 26 14 49 19 22 35 28 23 22 44 23 31 46 14 10 48 14 34 32 14 50 11 26 40 12 50 30 23 25 50 42 43 15 42 11 28 26 29 43 40 24 17 21 19 24 21 19 28 47 41 32 46 44 50 36 46 11 17 19 26 16 12 18 22 45 21 42 22 41 36 12 14 46 25 26 